\ SCIP STATISTICS
\   Problem name     : SetCover-200-200
\   Variables        : 200 (200 binary, 0 integer, 0 implicit integer, 0 continuous)
\   Constraints      : 200
Minimize
 Obj: +66 x0 +90 x1 +9 x2 +42 x3 +19 x4 +1 x5 +23 x6 +16 x7 +5 x8 +89 x9 +7 x10 +7 x11 +81 x12 +65 x13
      +94 x14 +26 x15 +39 x16 +51 x17 +54 x18 +83 x19 +22 x20 +29 x21 +83 x22 +31 x23 +48 x24 +93 x25
      +44 x26 +19 x27 +38 x28 +35 x29 +84 x30 +45 x31 +61 x32 +3 x33 +33 x34 +38 x35 +72 x36 +36 x37 +49 x38
      +32 x39 +30 x40 +13 x41 +70 x42 +49 x43 +62 x44 +44 x45 +61 x46 +44 x47 +76 x48 +17 x49 +40 x50
      +30 x51 +77 x52 +78 x53 +12 x54 +79 x55 +77 x56 +43 x57 +17 x58 +62 x59 +76 x60 +68 x61 +66 x62
      +21 x63 +90 x64 +46 x65 +26 x66 +61 x67 +20 x68 +79 x69 +38 x70 +23 x71 +24 x72 +71 x73 +58 x74
      +7 x75 +100 x76 +99 x77 +61 x78 +84 x79 +80 x80 +20 x81 +100 x82 +31 x83 +81 x84 +5 x85 +2 x86 +46 x87
      +71 x88 +94 x89 +86 x90 +52 x91 +19 x92 +31 x93 +9 x94 +75 x95 +53 x96 +15 x97 +97 x98 +45 x99 +30 x100
      +34 x101 +27 x102 +47 x103 +97 x104 +26 x105 +65 x106 +66 x107 +40 x108 +81 x109 +45 x110 +95 x111
      +40 x112 +23 x113 +36 x114 +16 x115 +23 x116 +8 x117 +26 x118 +48 x119 +7 x120 +34 x121 +74 x122
      +73 x123 +62 x124 +32 x125 +39 x126 +67 x127 +83 x128 +83 x129 +11 x130 +62 x131 +84 x132 +55 x133
      +37 x134 +16 x135 +47 x136 +78 x137 +50 x138 +87 x139 +13 x140 +85 x141 +40 x142 +32 x143 +19 x144
      +90 x145 +84 x146 +53 x147 +72 x148 +52 x149 +62 x150 +64 x151 +55 x152 +29 x153 +98 x154 +71 x155
      +47 x156 +59 x157 +87 x158 +66 x159 +77 x160 +7 x161 +74 x162 +16 x163 +60 x164 +12 x165 +57 x166
      +66 x167 +80 x168 +81 x169 +9 x170 +74 x171 +97 x172 +1 x173 +93 x174 +63 x175 +97 x176 +76 x177
      +56 x178 +54 x179 +33 x180 +96 x181 +73 x182 +45 x183 +23 x184 +99 x185 +75 x186 +70 x187 +19 x188
      +43 x189 +27 x190 +73 x191 +5 x192 +44 x193 +25 x194 +7 x195 +21 x196 +59 x197 +65 x198 +69 x199
Subject to
 c0: +1 x2 +1 x25 +1 x31 +1 x40 +1 x46 +1 x70 +1 x71 +1 x72 +1 x76 +1 x79 +1 x80 +1 x82 +1 x83 +1 x85
  +1 x86 +1 x95 +1 x111 +1 x118 +1 x123 +1 x148 +1 x176 +1 x179 +1 x187 +1 x189 >= +1
 c1: +1 x7 +1 x11 +1 x20 +1 x22 +1 x46 +1 x50 +1 x55 +1 x63 +1 x66 +1 x81 +1 x91 +1 x94 +1 x97 +1 x100
  +1 x117 +1 x123 +1 x149 +1 x175 +1 x188 +1 x192 +1 x194 +1 x199 >= +1
 c2: +1 x5 +1 x16 +1 x19 +1 x33 +1 x36 +1 x38 +1 x46 +1 x48 +1 x58 +1 x68 +1 x69 +1 x76 +1 x97 +1 x107
  +1 x127 +1 x140 +1 x153 +1 x174 +1 x180 +1 x193 >= +1
 c3: +1 x8 +1 x18 +1 x21 +1 x28 +1 x100 +1 x115 +1 x130 +1 x132 +1 x142 +1 x158 +1 x159 +1 x170 +1 x172
  +1 x188 >= +1
 c4: +1 x8 +1 x13 +1 x20 +1 x42 +1 x55 +1 x67 +1 x106 +1 x113 +1 x122 +1 x131 +1 x139 +1 x156 +1 x159
  +1 x174 +1 x175 +1 x178 +1 x181 +1 x190 >= +1
 c5: +1 x9 +1 x37 +1 x42 +1 x49 +1 x51 +1 x54 +1 x65 +1 x73 +1 x98 +1 x112 +1 x114 +1 x115 +1 x143 +1 x159
  +1 x160 +1 x170 +1 x175 >= +1
 c6: +1 x10 +1 x14 +1 x16 +1 x20 +1 x24 +1 x48 +1 x53 +1 x55 +1 x63 +1 x69 +1 x72 +1 x98 +1 x106 +1 x111
  +1 x118 +1 x120 +1 x127 +1 x145 +1 x149 +1 x155 +1 x156 +1 x157 +1 x160 +1 x178 >= +1
 c7: +1 x5 +1 x12 +1 x14 +1 x18 +1 x59 +1 x60 +1 x71 +1 x83 +1 x96 +1 x97 +1 x103 +1 x105 +1 x108 +1 x158
  +1 x165 +1 x183 >= +1
 c8: +1 x7 +1 x15 +1 x16 +1 x17 +1 x19 +1 x33 +1 x46 +1 x50 +1 x55 +1 x56 +1 x61 +1 x87 +1 x97 +1 x99
  +1 x102 +1 x105 +1 x111 +1 x135 +1 x143 +1 x164 >= +1
 c9: +1 x11 +1 x24 +1 x43 +1 x44 +1 x48 +1 x55 +1 x84 +1 x86 +1 x87 +1 x89 +1 x111 +1 x115 +1 x124 +1 x150
  +1 x154 +1 x156 +1 x157 +1 x160 +1 x161 +1 x164 +1 x168 +1 x186 >= +1
 c10: +1 x7 +1 x11 +1 x23 +1 x26 +1 x32 +1 x39 +1 x47 +1 x53 +1 x56 +1 x58 +1 x62 +1 x63 +1 x64 +1 x70
  +1 x75 +1 x82 +1 x92 +1 x93 +1 x99 +1 x103 +1 x109 +1 x111 +1 x116 +1 x117 +1 x120 +1 x135 +1 x138 +1 x141
  +1 x155 +1 x158 +1 x161 +1 x164 +1 x168 +1 x174 +1 x187 +1 x199 >= +1
 c11: +1 x5 +1 x15 +1 x22 +1 x25 +1 x33 +1 x49 +1 x59 +1 x71 +1 x84 +1 x98 +1 x132 +1 x135 +1 x142 +1 x158
  +1 x166 +1 x198 >= +1
 c12: +1 x9 +1 x11 +1 x23 +1 x26 +1 x37 +1 x49 +1 x92 +1 x105 +1 x106 +1 x114 +1 x126 +1 x127 +1 x146
  +1 x147 +1 x156 +1 x168 +1 x191 >= +1
 c13: +1 x3 +1 x11 +1 x36 +1 x42 +1 x79 +1 x99 +1 x102 +1 x109 +1 x121 +1 x125 +1 x130 +1 x133 +1 x139
  +1 x141 +1 x143 +1 x149 +1 x158 +1 x167 +1 x170 +1 x179 +1 x198 >= +1
 c14: +1 x3 +1 x17 +1 x24 +1 x33 +1 x45 +1 x49 +1 x56 +1 x65 +1 x67 +1 x70 +1 x79 +1 x84 +1 x85 +1 x94
  +1 x105 +1 x124 +1 x126 +1 x133 +1 x138 +1 x144 +1 x155 +1 x158 +1 x176 +1 x184 +1 x197 >= +1
 c15: +1 x6 +1 x11 +1 x14 +1 x16 +1 x37 +1 x55 +1 x60 +1 x72 +1 x88 +1 x91 +1 x92 +1 x97 +1 x111 +1 x115
  +1 x118 +1 x119 +1 x127 +1 x138 +1 x154 +1 x156 +1 x165 +1 x168 +1 x173 +1 x174 +1 x175 +1 x181 +1 x186
  +1 x192 +1 x196 >= +1
 c16: +1 x6 +1 x22 +1 x23 +1 x30 +1 x32 +1 x36 +1 x59 +1 x64 +1 x70 +1 x104 +1 x129 +1 x160 +1 x167 +1 x172
  +1 x173 +1 x176 +1 x182 >= +1
 c17: +1 x7 +1 x12 +1 x15 +1 x17 +1 x24 +1 x26 +1 x27 +1 x34 +1 x54 +1 x71 +1 x76 +1 x84 +1 x105 +1 x114
  +1 x115 +1 x122 +1 x143 +1 x156 +1 x160 +1 x161 +1 x164 +1 x171 +1 x172 +1 x192 +1 x193 +1 x199 >= +1
 c18: +1 x8 +1 x28 +1 x29 +1 x33 +1 x38 +1 x43 +1 x49 +1 x58 +1 x100 +1 x119 +1 x121 +1 x129 +1 x138 +1 x151
  +1 x152 +1 x184 +1 x188 +1 x190 +1 x199 >= +1
 c19: +1 x4 +1 x17 +1 x38 +1 x46 +1 x48 +1 x49 +1 x61 +1 x81 +1 x84 +1 x110 +1 x141 +1 x170 +1 x176 +1 x178
  +1 x182 +1 x194 +1 x198 >= +1
 c20: +1 x1 +1 x34 +1 x71 +1 x73 +1 x81 +1 x82 +1 x84 +1 x91 +1 x92 +1 x96 +1 x103 +1 x108 +1 x127 +1 x129
  +1 x143 +1 x155 +1 x163 +1 x164 +1 x172 +1 x181 +1 x189 +1 x194 >= +1
 c21: +1 x9 +1 x19 +1 x27 +1 x30 +1 x48 +1 x54 +1 x60 +1 x77 +1 x80 +1 x82 +1 x89 +1 x90 +1 x99 +1 x103
  +1 x129 +1 x142 +1 x147 +1 x148 +1 x152 +1 x173 +1 x177 +1 x197 +1 x198 >= +1
 c22: +1 x5 +1 x28 +1 x35 +1 x37 +1 x59 +1 x81 +1 x95 +1 x96 +1 x102 +1 x111 +1 x121 +1 x140 +1 x154 +1 x161
  +1 x167 +1 x177 +1 x179 +1 x189 +1 x195 +1 x198 >= +1
 c23: +1 x1 +1 x11 +1 x18 +1 x57 +1 x58 +1 x77 +1 x80 +1 x84 +1 x97 +1 x101 +1 x105 +1 x117 +1 x127 +1 x135
  +1 x136 +1 x142 +1 x165 +1 x177 +1 x182 +1 x183 +1 x191 +1 x196 >= +1
 c24: +1 x6 +1 x15 +1 x18 +1 x42 +1 x47 +1 x52 +1 x58 +1 x62 +1 x82 +1 x83 +1 x91 +1 x95 +1 x98 +1 x99
  +1 x115 +1 x117 +1 x118 +1 x140 +1 x146 +1 x147 +1 x154 +1 x165 +1 x171 >= +1
 c25: +1 x3 +1 x14 +1 x30 +1 x34 +1 x44 +1 x49 +1 x57 +1 x61 +1 x64 +1 x72 +1 x77 +1 x79 +1 x87 +1 x92
  +1 x120 +1 x130 +1 x131 +1 x142 +1 x145 +1 x146 +1 x161 +1 x163 +1 x171 +1 x174 +1 x175 +1 x199 >= +1
 c26: +1 x0 +1 x26 +1 x36 +1 x53 +1 x67 +1 x89 +1 x121 +1 x126 +1 x130 +1 x163 +1 x172 +1 x179 +1 x190
  >= +1
 c27: +1 x8 +1 x11 +1 x14 +1 x42 +1 x49 +1 x54 +1 x66 +1 x69 +1 x77 +1 x80 +1 x85 +1 x106 +1 x143 +1 x144
  +1 x152 +1 x166 +1 x171 +1 x187 +1 x190 +1 x195 >= +1
 c28: +1 x3 +1 x32 +1 x52 +1 x55 +1 x71 +1 x84 +1 x93 +1 x94 +1 x102 +1 x105 +1 x117 +1 x122 +1 x130 +1 x137
  +1 x138 +1 x143 +1 x154 +1 x160 +1 x170 +1 x174 +1 x181 >= +1
 c29: +1 x8 +1 x20 +1 x23 +1 x49 +1 x57 +1 x64 +1 x128 +1 x135 +1 x141 +1 x164 +1 x173 +1 x183 +1 x192
  >= +1
 c30: +1 x10 +1 x12 +1 x18 +1 x34 +1 x52 +1 x62 +1 x77 +1 x78 +1 x79 +1 x83 +1 x88 +1 x96 +1 x106 +1 x107
  +1 x109 +1 x113 +1 x129 +1 x133 +1 x146 +1 x186 +1 x196 +1 x199 >= +1
 c31: +1 x8 +1 x13 +1 x32 +1 x50 +1 x64 +1 x66 +1 x100 +1 x107 +1 x111 +1 x115 +1 x167 +1 x170 +1 x193
  +1 x194 +1 x195 >= +1
 c32: +1 x0 +1 x14 +1 x35 +1 x69 +1 x76 +1 x81 +1 x86 +1 x92 +1 x94 +1 x119 +1 x123 +1 x125 +1 x135 +1 x141
  +1 x142 +1 x146 +1 x163 +1 x167 +1 x170 +1 x173 +1 x188 +1 x193 +1 x195 >= +1
 c33: +1 x10 +1 x11 +1 x19 +1 x31 +1 x51 +1 x81 +1 x87 +1 x88 +1 x91 +1 x121 +1 x125 +1 x127 +1 x133 +1 x166
  +1 x168 +1 x183 +1 x190 >= +1
 c34: +1 x6 +1 x28 +1 x29 +1 x37 +1 x65 +1 x96 +1 x111 +1 x112 +1 x124 +1 x128 +1 x136 +1 x137 +1 x150
  +1 x179 +1 x191 +1 x192 >= +1
 c35: +1 x9 +1 x23 +1 x53 +1 x62 +1 x69 +1 x80 +1 x82 +1 x89 +1 x94 +1 x118 +1 x120 +1 x122 +1 x123 +1 x124
  +1 x129 +1 x145 +1 x149 +1 x162 +1 x189 >= +1
 c36: +1 x3 +1 x31 +1 x55 +1 x58 +1 x61 +1 x64 +1 x69 +1 x83 +1 x92 +1 x119 +1 x130 +1 x131 +1 x133 +1 x134
  +1 x141 +1 x142 +1 x150 +1 x151 +1 x169 +1 x175 >= +1
 c37: +1 x10 +1 x35 +1 x63 +1 x79 +1 x85 +1 x95 +1 x110 +1 x112 +1 x118 +1 x136 +1 x137 +1 x160 +1 x162
  +1 x163 +1 x176 +1 x178 >= +1
 c38: +1 x2 +1 x32 +1 x48 +1 x54 +1 x60 +1 x69 +1 x96 +1 x105 +1 x110 +1 x118 +1 x155 +1 x173 +1 x182
  +1 x190 >= +1
 c39: +1 x2 +1 x20 +1 x30 +1 x47 +1 x53 +1 x54 +1 x67 +1 x88 +1 x100 +1 x103 +1 x107 +1 x112 +1 x132 +1 x142
  +1 x154 +1 x155 +1 x156 +1 x164 +1 x173 +1 x174 +1 x186 +1 x198 >= +1
 c40: +1 x8 +1 x18 +1 x25 +1 x27 +1 x38 +1 x49 +1 x68 +1 x71 +1 x76 +1 x84 +1 x86 +1 x92 +1 x93 +1 x107
  +1 x120 +1 x124 +1 x132 +1 x136 +1 x147 +1 x153 +1 x160 +1 x172 +1 x173 +1 x199 >= +1
 c41: +1 x2 +1 x20 +1 x23 +1 x44 +1 x51 +1 x54 +1 x83 +1 x84 +1 x87 +1 x106 +1 x124 +1 x128 +1 x169 +1 x186
  +1 x187 +1 x195 >= +1
 c42: +1 x8 +1 x17 +1 x53 +1 x61 +1 x68 +1 x69 +1 x87 +1 x89 +1 x101 +1 x107 +1 x113 +1 x117 +1 x127 +1 x133
  +1 x134 +1 x142 +1 x146 +1 x155 +1 x165 +1 x169 +1 x175 +1 x180 +1 x182 +1 x196 >= +1
 c43: +1 x2 +1 x17 +1 x38 +1 x49 +1 x55 +1 x67 +1 x71 +1 x73 +1 x98 +1 x108 +1 x109 +1 x120 +1 x143 +1 x159
  +1 x165 +1 x171 +1 x182 +1 x184 +1 x186 >= +1
 c44: +1 x8 +1 x11 +1 x20 +1 x24 +1 x26 +1 x30 +1 x48 +1 x49 +1 x52 +1 x64 +1 x65 +1 x74 +1 x79 +1 x80
  +1 x91 +1 x92 +1 x93 +1 x97 +1 x99 +1 x101 +1 x104 +1 x107 +1 x129 +1 x135 +1 x136 +1 x138 +1 x144 +1 x172
  +1 x176 +1 x179 +1 x182 +1 x198 >= +1
 c45: +1 x8 +1 x12 +1 x15 +1 x16 +1 x21 +1 x29 +1 x38 +1 x47 +1 x51 +1 x56 +1 x62 +1 x77 +1 x91 +1 x95
  +1 x109 +1 x110 +1 x116 +1 x117 +1 x121 +1 x125 +1 x129 +1 x150 +1 x151 +1 x154 +1 x158 +1 x159 +1 x178
  +1 x182 +1 x196 >= +1
 c46: +1 x4 +1 x14 +1 x24 +1 x30 +1 x56 +1 x85 +1 x88 +1 x93 +1 x125 +1 x130 +1 x133 +1 x136 +1 x158 +1 x168
  +1 x175 +1 x188 +1 x191 +1 x192 >= +1
 c47: +1 x8 +1 x12 +1 x26 +1 x42 +1 x44 +1 x50 +1 x52 +1 x62 +1 x78 +1 x83 +1 x88 +1 x92 +1 x103 +1 x118
  +1 x127 +1 x130 +1 x158 +1 x163 +1 x172 +1 x188 >= +1
 c48: +1 x2 +1 x15 +1 x23 +1 x28 +1 x43 +1 x48 +1 x70 +1 x80 +1 x95 +1 x98 +1 x119 +1 x130 +1 x153 +1 x158
  +1 x163 +1 x168 +1 x178 >= +1
 c49: +1 x10 +1 x15 +1 x16 +1 x30 +1 x69 +1 x73 +1 x81 +1 x102 +1 x110 +1 x116 +1 x119 +1 x132 +1 x134
  +1 x170 +1 x171 +1 x173 +1 x196 >= +1
 c50: +1 x8 +1 x20 +1 x44 +1 x69 +1 x80 +1 x94 +1 x101 +1 x109 +1 x119 +1 x132 +1 x143 +1 x152 +1 x187
  >= +1
 c51: +1 x6 +1 x11 +1 x23 +1 x35 +1 x37 +1 x42 +1 x50 +1 x53 +1 x70 +1 x81 +1 x85 +1 x86 +1 x87 +1 x88
  +1 x93 +1 x97 +1 x103 +1 x108 +1 x116 +1 x149 +1 x153 +1 x161 +1 x182 +1 x183 +1 x189 >= +1
 c52: +1 x4 +1 x14 +1 x29 +1 x40 +1 x75 +1 x86 +1 x87 +1 x89 +1 x90 +1 x106 +1 x113 +1 x120 +1 x124 +1 x129
  +1 x132 +1 x143 +1 x155 +1 x156 +1 x164 +1 x184 +1 x190 +1 x192 >= +1
 c53: +1 x8 +1 x18 +1 x21 +1 x24 +1 x30 +1 x38 +1 x51 +1 x53 +1 x64 +1 x72 +1 x82 +1 x83 +1 x84 +1 x112
  +1 x114 +1 x118 +1 x124 +1 x128 +1 x139 +1 x145 +1 x169 +1 x182 +1 x186 +1 x189 >= +1
 c54: +1 x10 +1 x12 +1 x52 +1 x102 +1 x107 +1 x115 +1 x122 +1 x132 +1 x144 +1 x149 +1 x156 +1 x163 +1 x182
  +1 x188 >= +1
 c55: +1 x1 +1 x20 +1 x22 +1 x33 +1 x46 +1 x51 +1 x56 +1 x64 +1 x80 +1 x84 +1 x92 +1 x106 +1 x107 +1 x110
  +1 x127 +1 x145 +1 x157 +1 x168 +1 x174 +1 x181 >= +1
 c56: +1 x8 +1 x12 +1 x13 +1 x40 +1 x44 +1 x51 +1 x57 +1 x81 +1 x83 +1 x85 +1 x88 +1 x105 +1 x118 +1 x136
  +1 x158 +1 x192 +1 x193 >= +1
 c57: +1 x4 +1 x18 +1 x20 +1 x22 +1 x24 +1 x29 +1 x30 +1 x46 +1 x54 +1 x73 +1 x86 +1 x87 +1 x93 +1 x96
  +1 x102 +1 x111 +1 x119 +1 x121 +1 x122 +1 x125 +1 x139 +1 x146 +1 x151 +1 x167 +1 x180 >= +1
 c58: +1 x1 +1 x26 +1 x27 +1 x34 +1 x36 +1 x39 +1 x41 +1 x46 +1 x54 +1 x63 +1 x67 +1 x78 +1 x79 +1 x82
  +1 x86 +1 x113 +1 x132 +1 x153 +1 x157 +1 x182 +1 x191 +1 x199 >= +1
 c59: +1 x3 +1 x11 +1 x32 +1 x40 +1 x48 +1 x49 +1 x51 +1 x53 +1 x68 +1 x77 +1 x80 +1 x106 +1 x108 +1 x114
  +1 x117 +1 x142 +1 x151 +1 x158 +1 x161 +1 x195 >= +1
 c60: +1 x0 +1 x16 +1 x39 +1 x49 +1 x52 +1 x65 +1 x73 +1 x77 +1 x119 +1 x134 +1 x139 +1 x144 +1 x195 >= +1
 c61: +1 x10 +1 x28 +1 x32 +1 x43 +1 x48 +1 x57 +1 x83 +1 x89 +1 x97 +1 x103 +1 x109 +1 x121 +1 x141 +1 x151
  +1 x160 +1 x169 +1 x179 +1 x181 +1 x185 +1 x187 +1 x195 >= +1
 c62: +1 x4 +1 x12 +1 x25 +1 x27 +1 x39 +1 x70 +1 x74 +1 x78 +1 x81 +1 x91 +1 x111 +1 x115 +1 x138 +1 x140
  +1 x141 +1 x145 +1 x153 +1 x173 +1 x184 +1 x193 >= +1
 c63: +1 x6 +1 x16 +1 x19 +1 x20 +1 x27 +1 x36 +1 x40 +1 x46 +1 x47 +1 x60 +1 x61 +1 x82 +1 x99 +1 x105
  +1 x110 +1 x129 +1 x131 +1 x145 +1 x158 +1 x159 +1 x181 +1 x194 >= +1
 c64: +1 x10 +1 x12 +1 x46 +1 x60 +1 x85 +1 x89 +1 x91 +1 x93 +1 x95 +1 x96 +1 x103 +1 x118 +1 x148 +1 x166
  +1 x170 +1 x189 >= +1
 c65: +1 x1 +1 x30 +1 x32 +1 x42 +1 x63 +1 x69 +1 x84 +1 x98 +1 x99 +1 x105 +1 x115 +1 x140 +1 x147 +1 x150
  +1 x156 +1 x160 +1 x164 +1 x177 +1 x184 +1 x187 +1 x198 >= +1
 c66: +1 x9 +1 x17 +1 x42 +1 x48 +1 x58 +1 x62 +1 x65 +1 x66 +1 x76 +1 x77 +1 x82 +1 x93 +1 x94 +1 x111
  +1 x113 +1 x120 +1 x138 +1 x141 +1 x143 +1 x150 +1 x153 +1 x179 +1 x191 +1 x198 >= +1
 c67: +1 x9 +1 x13 +1 x33 +1 x34 +1 x36 +1 x43 +1 x46 +1 x55 +1 x65 +1 x66 +1 x71 +1 x80 +1 x83 +1 x92
  +1 x97 +1 x102 +1 x105 +1 x108 +1 x135 +1 x145 +1 x160 +1 x191 >= +1
 c68: +1 x7 +1 x19 +1 x37 +1 x56 +1 x61 +1 x88 +1 x105 +1 x106 +1 x120 +1 x127 +1 x131 +1 x134 +1 x137
  +1 x139 +1 x147 +1 x175 +1 x177 +1 x189 +1 x190 +1 x192 >= +1
 c69: +1 x3 +1 x14 +1 x19 +1 x23 +1 x42 +1 x48 +1 x51 +1 x53 +1 x56 +1 x60 +1 x61 +1 x65 +1 x67 +1 x75
  +1 x85 +1 x86 +1 x94 +1 x96 +1 x102 +1 x107 +1 x110 +1 x132 +1 x152 +1 x180 >= +1
 c70: +1 x10 +1 x20 +1 x30 +1 x36 +1 x49 +1 x57 +1 x81 +1 x95 +1 x132 +1 x133 +1 x135 +1 x136 +1 x145
  +1 x163 +1 x168 +1 x189 +1 x196 >= +1
 c71: +1 x5 +1 x17 +1 x36 +1 x41 +1 x42 +1 x65 +1 x71 +1 x82 +1 x88 +1 x107 +1 x113 +1 x115 +1 x138 +1 x158
  +1 x167 >= +1
 c72: +1 x0 +1 x20 +1 x21 +1 x40 +1 x46 +1 x73 +1 x95 +1 x98 +1 x101 +1 x115 +1 x131 +1 x149 +1 x152 +1 x155
  +1 x168 +1 x169 +1 x176 +1 x179 +1 x181 >= +1
 c73: +1 x2 +1 x14 +1 x25 +1 x45 +1 x63 +1 x64 +1 x99 +1 x108 +1 x109 +1 x118 +1 x128 +1 x130 +1 x152
  +1 x161 +1 x165 +1 x173 +1 x177 +1 x178 +1 x183 +1 x184 +1 x185 +1 x187 +1 x188 +1 x193 +1 x195 +1 x198
  >= +1
 c74: +1 x1 +1 x12 +1 x47 +1 x56 +1 x65 +1 x110 +1 x143 +1 x158 +1 x164 +1 x185 +1 x193 >= +1
 c75: +1 x1 +1 x15 +1 x50 +1 x53 +1 x55 +1 x66 +1 x82 +1 x108 +1 x143 +1 x163 +1 x178 +1 x193 +1 x195
  >= +1
 c76: +1 x3 +1 x34 +1 x41 +1 x42 +1 x43 +1 x51 +1 x54 +1 x64 +1 x74 +1 x75 +1 x76 +1 x83 +1 x87 +1 x101
  +1 x110 +1 x117 +1 x130 +1 x132 +1 x135 +1 x167 +1 x172 +1 x175 +1 x188 +1 x190 +1 x196 +1 x198 >= +1
 c77: +1 x0 +1 x36 +1 x42 +1 x60 +1 x62 +1 x68 +1 x79 +1 x85 +1 x93 +1 x100 +1 x111 +1 x121 +1 x143 +1 x174
  +1 x196 >= +1
 c78: +1 x3 +1 x24 +1 x25 +1 x32 +1 x40 +1 x103 +1 x114 +1 x138 +1 x151 +1 x164 +1 x169 +1 x173 +1 x175
  +1 x181 +1 x184 >= +1
 c79: +1 x7 +1 x11 +1 x12 +1 x21 +1 x25 +1 x44 +1 x65 +1 x67 +1 x79 +1 x85 +1 x99 +1 x111 +1 x112 +1 x126
  +1 x128 +1 x136 +1 x148 +1 x150 +1 x161 +1 x167 +1 x174 +1 x180 +1 x189 +1 x194 +1 x195 >= +1
 c80: +1 x5 +1 x25 +1 x29 +1 x37 +1 x48 +1 x64 +1 x71 +1 x83 +1 x116 +1 x122 +1 x135 +1 x138 +1 x140 +1 x147
  +1 x160 +1 x161 +1 x165 +1 x171 +1 x172 +1 x186 +1 x189 +1 x199 >= +1
 c81: +1 x4 +1 x12 +1 x19 +1 x60 +1 x67 +1 x73 +1 x87 +1 x90 +1 x92 +1 x97 +1 x120 +1 x128 +1 x130 +1 x170
  +1 x194 >= +1
 c82: +1 x8 +1 x11 +1 x15 +1 x30 +1 x38 +1 x41 +1 x44 +1 x45 +1 x49 +1 x54 +1 x67 +1 x93 +1 x99 +1 x111
  +1 x113 +1 x120 +1 x123 +1 x126 +1 x130 +1 x132 +1 x137 +1 x142 +1 x158 +1 x159 +1 x160 +1 x165 +1 x185
  +1 x191 >= +1
 c83: +1 x4 +1 x20 +1 x29 +1 x42 +1 x45 +1 x71 +1 x93 +1 x97 +1 x157 +1 x181 +1 x183 +1 x187 +1 x189 +1 x194
  +1 x199 >= +1
 c84: +1 x0 +1 x14 +1 x29 +1 x30 +1 x41 +1 x44 +1 x46 +1 x53 +1 x61 +1 x64 +1 x78 +1 x91 +1 x94 +1 x100
  +1 x112 +1 x122 +1 x163 +1 x170 +1 x180 +1 x181 +1 x182 +1 x187 +1 x194 >= +1
 c85: +1 x8 +1 x19 +1 x21 +1 x37 +1 x62 +1 x88 +1 x98 +1 x106 +1 x118 +1 x129 +1 x135 +1 x136 +1 x139
  +1 x167 +1 x168 +1 x173 +1 x177 +1 x181 +1 x187 +1 x195 +1 x197 >= +1
 c86: +1 x1 +1 x12 +1 x34 +1 x36 +1 x37 +1 x39 +1 x65 +1 x68 +1 x70 +1 x85 +1 x97 +1 x103 +1 x114 +1 x124
  +1 x136 +1 x137 +1 x150 +1 x153 +1 x157 +1 x166 +1 x184 +1 x193 +1 x198 >= +1
 c87: +1 x5 +1 x16 +1 x19 +1 x31 +1 x35 +1 x40 +1 x41 +1 x52 +1 x61 +1 x64 +1 x83 +1 x86 +1 x98 +1 x105
  +1 x112 +1 x114 +1 x126 +1 x129 +1 x134 +1 x144 +1 x147 +1 x158 +1 x162 +1 x164 +1 x175 +1 x183 +1 x185
  +1 x188 >= +1
 c88: +1 x4 +1 x12 +1 x17 +1 x26 +1 x37 +1 x39 +1 x43 +1 x45 +1 x52 +1 x55 +1 x58 +1 x70 +1 x72 +1 x73
  +1 x76 +1 x81 +1 x103 +1 x114 +1 x124 +1 x132 +1 x133 +1 x147 +1 x151 +1 x154 +1 x157 +1 x162 +1 x165
  +1 x167 +1 x170 +1 x175 +1 x178 +1 x181 +1 x189 +1 x196 >= +1
 c89: +1 x0 +1 x14 +1 x15 +1 x17 +1 x18 +1 x46 +1 x53 +1 x66 +1 x67 +1 x75 +1 x113 +1 x131 +1 x149 +1 x154
  +1 x175 +1 x178 +1 x181 +1 x184 +1 x198 >= +1
 c90: +1 x5 +1 x17 +1 x58 +1 x63 +1 x65 +1 x91 +1 x95 +1 x104 +1 x115 +1 x132 +1 x141 +1 x156 +1 x158
  +1 x164 +1 x179 +1 x188 +1 x189 +1 x191 >= +1
 c91: +1 x3 +1 x11 +1 x18 +1 x20 +1 x52 +1 x58 +1 x61 +1 x85 +1 x97 +1 x100 +1 x101 +1 x105 +1 x106 +1 x125
  +1 x145 +1 x162 +1 x163 +1 x180 +1 x185 +1 x195 >= +1
 c92: +1 x9 +1 x20 +1 x46 +1 x70 +1 x75 +1 x86 +1 x94 +1 x103 +1 x128 +1 x145 +1 x154 +1 x159 +1 x185
  +1 x190 +1 x196 >= +1
 c93: +1 x4 +1 x13 +1 x14 +1 x22 +1 x27 +1 x28 +1 x33 +1 x34 +1 x40 +1 x59 +1 x66 +1 x68 +1 x81 +1 x84
  +1 x105 +1 x109 +1 x117 +1 x140 +1 x144 +1 x155 +1 x157 +1 x167 +1 x185 +1 x197 >= +1
 c94: +1 x6 +1 x25 +1 x29 +1 x40 +1 x74 +1 x81 +1 x102 +1 x111 +1 x122 +1 x124 +1 x125 +1 x130 +1 x134
  +1 x147 +1 x150 +1 x166 +1 x185 >= +1
 c95: +1 x0 +1 x23 +1 x24 +1 x28 +1 x34 +1 x41 +1 x43 +1 x56 +1 x57 +1 x62 +1 x76 +1 x78 +1 x120 +1 x123
  +1 x136 +1 x143 +1 x157 +1 x170 +1 x189 +1 x190 +1 x191 >= +1
 c96: +1 x2 +1 x20 +1 x27 +1 x40 +1 x52 +1 x61 +1 x62 +1 x67 +1 x84 +1 x103 +1 x113 +1 x114 +1 x118 +1 x119
  +1 x127 +1 x152 +1 x156 +1 x192 +1 x194 +1 x198 >= +1
 c97: +1 x5 +1 x21 +1 x30 +1 x42 +1 x70 +1 x72 +1 x91 +1 x112 +1 x118 +1 x136 +1 x139 +1 x163 +1 x166
  +1 x181 +1 x185 >= +1
 c98: +1 x10 +1 x31 +1 x34 +1 x51 +1 x59 +1 x61 +1 x73 +1 x81 +1 x100 +1 x103 +1 x106 +1 x122 +1 x125
  +1 x131 +1 x132 +1 x145 +1 x166 +1 x172 +1 x185 +1 x192 +1 x193 >= +1
 c99: +1 x5 +1 x14 +1 x26 +1 x31 +1 x38 +1 x44 +1 x45 +1 x53 +1 x55 +1 x70 +1 x77 +1 x81 +1 x90 +1 x98
  +1 x101 +1 x103 +1 x106 +1 x109 +1 x118 +1 x127 +1 x129 +1 x155 +1 x156 +1 x173 +1 x174 +1 x192 +1 x194
  +1 x198 >= +1
 c100: +1 x4 +1 x12 +1 x13 +1 x19 +1 x29 +1 x50 +1 x60 +1 x66 +1 x71 +1 x86 +1 x92 +1 x97 +1 x98 +1 x103
  +1 x121 +1 x126 +1 x152 +1 x157 +1 x164 +1 x165 +1 x167 +1 x183 +1 x187 +1 x195 +1 x197 >= +1
 c101: +1 x2 +1 x16 +1 x28 +1 x33 +1 x38 +1 x42 +1 x43 +1 x76 +1 x82 +1 x83 +1 x99 +1 x103 +1 x105 +1 x120
  +1 x122 +1 x136 +1 x140 +1 x151 +1 x156 +1 x194 +1 x195 >= +1
 c102: +1 x5 +1 x23 +1 x112 +1 x117 +1 x122 +1 x139 +1 x143 +1 x163 +1 x179 +1 x180 +1 x181 +1 x187 +1 x199
  >= +1
 c103: +1 x1 +1 x14 +1 x15 +1 x21 +1 x44 +1 x48 +1 x70 +1 x73 +1 x74 +1 x88 +1 x91 +1 x98 +1 x100 +1 x103
  +1 x105 +1 x107 +1 x127 +1 x139 +1 x142 +1 x143 +1 x150 +1 x164 +1 x192 >= +1
 c104: +1 x6 +1 x18 +1 x19 +1 x24 +1 x33 +1 x56 +1 x62 +1 x81 +1 x97 +1 x99 +1 x102 +1 x110 +1 x122 +1 x127
  +1 x138 +1 x160 +1 x161 +1 x173 +1 x176 +1 x180 +1 x186 +1 x188 >= +1
 c105: +1 x5 +1 x17 +1 x24 +1 x41 +1 x57 +1 x59 +1 x61 +1 x66 +1 x67 +1 x68 +1 x81 +1 x84 +1 x86 +1 x89
  +1 x111 +1 x121 +1 x123 +1 x140 +1 x150 +1 x162 +1 x164 +1 x166 +1 x178 >= +1
 c106: +1 x7 +1 x11 +1 x16 +1 x68 +1 x87 +1 x90 +1 x105 +1 x107 +1 x115 +1 x118 +1 x121 +1 x145 +1 x153
  +1 x159 +1 x161 +1 x182 +1 x187 >= +1
 c107: +1 x9 +1 x33 +1 x40 +1 x44 +1 x69 +1 x81 +1 x91 +1 x108 +1 x139 +1 x146 +1 x150 +1 x157 +1 x175
  +1 x178 +1 x187 +1 x196 >= +1
 c108: +1 x1 +1 x11 +1 x13 +1 x15 +1 x16 +1 x37 +1 x50 +1 x53 +1 x59 +1 x63 +1 x77 +1 x87 +1 x94 +1 x96
  +1 x101 +1 x113 +1 x118 +1 x140 +1 x144 +1 x157 +1 x196 >= +1
 c109: +1 x0 +1 x32 +1 x52 +1 x70 +1 x91 +1 x95 +1 x116 +1 x126 +1 x133 +1 x138 +1 x160 +1 x176 +1 x180
  +1 x184 +1 x191 >= +1
 c110: +1 x7 +1 x15 +1 x18 +1 x19 +1 x34 +1 x57 +1 x62 +1 x70 +1 x83 +1 x88 +1 x94 +1 x138 +1 x142 +1 x157
  +1 x170 +1 x173 +1 x177 +1 x187 +1 x192 +1 x193 +1 x194 +1 x195 +1 x197 >= +1
 c111: +1 x7 +1 x14 +1 x23 +1 x29 +1 x30 +1 x36 +1 x43 +1 x50 +1 x52 +1 x83 +1 x103 +1 x113 +1 x114 +1 x132
  +1 x138 +1 x146 +1 x149 +1 x184 +1 x185 +1 x195 +1 x197 >= +1
 c112: +1 x6 +1 x13 +1 x22 +1 x32 +1 x33 +1 x54 +1 x56 +1 x57 +1 x70 +1 x75 +1 x77 +1 x103 +1 x106 +1 x110
  +1 x121 +1 x137 +1 x140 +1 x143 +1 x156 +1 x163 +1 x173 +1 x177 +1 x198 +1 x199 >= +1
 c113: +1 x9 +1 x22 +1 x25 +1 x29 +1 x37 +1 x50 +1 x58 +1 x64 +1 x65 +1 x72 +1 x74 +1 x83 +1 x112 +1 x116
  +1 x127 +1 x138 +1 x147 +1 x158 +1 x163 +1 x166 +1 x174 +1 x185 +1 x188 >= +1
 c114: +1 x8 +1 x19 +1 x34 +1 x48 +1 x62 +1 x98 +1 x102 +1 x105 +1 x117 +1 x119 +1 x136 +1 x163 +1 x170
  +1 x184 +1 x185 +1 x189 +1 x198 >= +1
 c115: +1 x3 +1 x11 +1 x13 +1 x26 +1 x41 +1 x43 +1 x45 +1 x68 +1 x85 +1 x89 +1 x111 +1 x116 +1 x124 +1 x132
  +1 x139 +1 x147 +1 x151 +1 x161 +1 x176 +1 x179 >= +1
 c116: +1 x3 +1 x11 +1 x31 +1 x46 +1 x49 +1 x50 +1 x54 +1 x64 +1 x71 +1 x75 +1 x76 +1 x78 +1 x80 +1 x88
  +1 x91 +1 x97 +1 x102 +1 x110 +1 x116 +1 x126 +1 x131 +1 x152 +1 x157 +1 x158 +1 x162 +1 x165 +1 x195
  >= +1
 c117: +1 x5 +1 x18 +1 x53 +1 x54 +1 x55 +1 x61 +1 x64 +1 x69 +1 x71 +1 x80 +1 x89 +1 x92 +1 x130 +1 x133
  +1 x134 +1 x167 +1 x177 >= +1
 c118: +1 x4 +1 x12 +1 x16 +1 x17 +1 x46 +1 x92 +1 x99 +1 x112 +1 x119 +1 x125 +1 x133 +1 x136 +1 x156
  +1 x161 +1 x165 +1 x166 +1 x168 +1 x175 +1 x177 >= +1
 c119: +1 x8 +1 x15 +1 x21 +1 x23 +1 x25 +1 x42 +1 x49 +1 x56 +1 x64 +1 x75 +1 x100 +1 x113 +1 x120 +1 x123
  +1 x124 +1 x136 +1 x144 +1 x172 +1 x173 +1 x179 +1 x190 >= +1
 c120: +1 x9 +1 x17 +1 x27 +1 x34 +1 x36 +1 x42 +1 x52 +1 x64 +1 x86 +1 x89 +1 x91 +1 x102 +1 x107 +1 x152
  +1 x154 +1 x158 +1 x163 +1 x177 +1 x196 >= +1
 c121: +1 x2 +1 x15 +1 x17 +1 x20 +1 x25 +1 x26 +1 x30 +1 x55 +1 x74 +1 x86 +1 x110 +1 x130 +1 x139 +1 x154
  +1 x174 >= +1
 c122: +1 x5 +1 x16 +1 x27 +1 x40 +1 x64 +1 x83 +1 x101 +1 x139 +1 x156 +1 x163 +1 x167 +1 x182 +1 x193
  >= +1
 c123: +1 x3 +1 x20 +1 x26 +1 x27 +1 x33 +1 x42 +1 x87 +1 x104 +1 x114 +1 x115 +1 x150 +1 x160 +1 x174
  +1 x175 +1 x179 +1 x181 >= +1
 c124: +1 x10 +1 x16 +1 x18 +1 x21 +1 x50 +1 x57 +1 x78 +1 x82 +1 x120 +1 x122 +1 x123 +1 x129 +1 x132
  +1 x146 +1 x163 +1 x168 +1 x176 >= +1
 c125: +1 x0 +1 x11 +1 x34 +1 x60 +1 x74 +1 x82 +1 x83 +1 x93 +1 x94 +1 x116 +1 x126 +1 x140 +1 x143 +1 x147
  +1 x149 +1 x153 +1 x158 +1 x176 +1 x183 +1 x190 +1 x197 >= +1
 c126: +1 x9 +1 x13 +1 x16 +1 x17 +1 x28 +1 x33 +1 x39 +1 x43 +1 x51 +1 x68 +1 x71 +1 x77 +1 x85 +1 x105
  +1 x111 +1 x112 +1 x120 +1 x121 +1 x133 +1 x147 +1 x152 +1 x153 +1 x162 +1 x171 +1 x182 +1 x183 +1 x185
  +1 x187 +1 x198 >= +1
 c127: +1 x0 +1 x13 +1 x14 +1 x38 +1 x39 +1 x81 +1 x82 +1 x85 +1 x95 +1 x98 +1 x100 +1 x122 +1 x149 +1 x169
  +1 x188 >= +1
 c128: +1 x3 +1 x14 +1 x15 +1 x31 +1 x38 +1 x53 +1 x63 +1 x65 +1 x67 +1 x69 +1 x71 +1 x79 +1 x82 +1 x87
  +1 x93 +1 x110 +1 x127 +1 x131 +1 x157 >= +1
 c129: +1 x9 +1 x18 +1 x31 +1 x33 +1 x34 +1 x39 +1 x56 +1 x57 +1 x58 +1 x72 +1 x75 +1 x90 +1 x94 +1 x103
  +1 x119 +1 x121 +1 x134 +1 x138 +1 x142 +1 x165 +1 x167 +1 x177 +1 x178 >= +1
 c130: +1 x6 +1 x14 +1 x16 +1 x17 +1 x21 +1 x27 +1 x47 +1 x51 +1 x57 +1 x73 +1 x89 +1 x94 +1 x160 +1 x164
  +1 x179 +1 x182 +1 x190 >= +1
 c131: +1 x6 +1 x33 +1 x41 +1 x42 +1 x48 +1 x58 +1 x61 +1 x62 +1 x71 +1 x72 +1 x74 +1 x81 +1 x108 +1 x112
  +1 x123 +1 x130 +1 x170 +1 x183 +1 x185 >= +1
 c132: +1 x3 +1 x12 +1 x13 +1 x15 +1 x17 +1 x28 +1 x43 +1 x62 +1 x83 +1 x92 +1 x100 +1 x116 +1 x117 +1 x124
  +1 x127 +1 x137 +1 x158 +1 x194 >= +1
 c133: +1 x0 +1 x54 +1 x57 +1 x62 +1 x66 +1 x74 +1 x89 +1 x108 +1 x115 +1 x126 +1 x128 +1 x155 +1 x169
  +1 x175 +1 x184 +1 x186 +1 x188 +1 x191 +1 x199 >= +1
 c134: +1 x10 +1 x24 +1 x29 +1 x33 +1 x48 +1 x55 +1 x66 +1 x80 +1 x85 +1 x86 +1 x108 +1 x120 +1 x128 +1 x135
  +1 x140 +1 x152 +1 x156 +1 x161 +1 x170 +1 x175 +1 x185 +1 x189 >= +1
 c135: +1 x6 +1 x17 +1 x28 +1 x30 +1 x37 +1 x39 +1 x44 +1 x71 +1 x75 +1 x84 +1 x102 +1 x121 +1 x125 +1 x136
  +1 x144 +1 x172 +1 x178 +1 x179 >= +1
 c136: +1 x3 +1 x20 +1 x29 +1 x42 +1 x50 +1 x57 +1 x64 +1 x88 +1 x130 +1 x149 +1 x157 +1 x160 +1 x188
  +1 x197 >= +1
 c137: +1 x4 +1 x30 +1 x40 +1 x42 +1 x43 +1 x57 +1 x61 +1 x79 +1 x115 +1 x134 +1 x140 +1 x164 +1 x174
  +1 x176 +1 x179 +1 x195 >= +1
 c138: +1 x1 +1 x15 +1 x16 +1 x24 +1 x31 +1 x53 +1 x76 +1 x77 +1 x80 +1 x81 +1 x82 +1 x110 +1 x122 +1 x123
  +1 x128 +1 x131 +1 x140 +1 x141 +1 x151 +1 x167 +1 x171 +1 x172 +1 x185 >= +1
 c139: +1 x2 +1 x14 +1 x17 +1 x28 +1 x47 +1 x51 +1 x67 +1 x68 +1 x76 +1 x93 +1 x129 +1 x143 +1 x151 +1 x168
  +1 x175 +1 x187 >= +1
 c140: +1 x10 +1 x11 +1 x12 +1 x15 +1 x18 +1 x45 +1 x47 +1 x48 +1 x64 +1 x65 +1 x66 +1 x85 +1 x95 +1 x108
  +1 x135 +1 x138 +1 x139 +1 x141 +1 x157 +1 x160 +1 x169 +1 x178 >= +1
 c141: +1 x1 +1 x47 +1 x64 +1 x75 +1 x81 +1 x86 +1 x122 +1 x151 +1 x153 +1 x155 +1 x164 +1 x190 +1 x191
  +1 x194 +1 x195 >= +1
 c142: +1 x1 +1 x18 +1 x24 +1 x37 +1 x41 +1 x65 +1 x67 +1 x77 +1 x114 +1 x121 +1 x123 +1 x124 +1 x126
  +1 x138 +1 x143 +1 x170 +1 x182 +1 x190 >= +1
 c143: +1 x6 +1 x35 +1 x53 +1 x56 +1 x60 +1 x72 +1 x73 +1 x74 +1 x77 +1 x92 +1 x94 +1 x104 +1 x118 +1 x120
  +1 x173 +1 x174 +1 x175 +1 x176 +1 x192 +1 x195 >= +1
 c144: +1 x3 +1 x35 +1 x45 +1 x47 +1 x51 +1 x55 +1 x58 +1 x59 +1 x60 +1 x74 +1 x78 +1 x79 +1 x80 +1 x116
  +1 x128 +1 x137 +1 x139 +1 x146 +1 x160 +1 x161 >= +1
 c145: +1 x7 +1 x15 +1 x47 +1 x55 +1 x83 +1 x95 +1 x115 +1 x124 +1 x128 +1 x130 +1 x156 +1 x165 +1 x185
  +1 x194 +1 x198 >= +1
 c146: +1 x8 +1 x12 +1 x13 +1 x17 +1 x18 +1 x31 +1 x38 +1 x47 +1 x48 +1 x53 +1 x80 +1 x109 +1 x112 +1 x120
  +1 x122 +1 x123 +1 x164 +1 x169 +1 x181 >= +1
 c147: +1 x6 +1 x15 +1 x23 +1 x51 +1 x53 +1 x58 +1 x95 +1 x101 +1 x113 +1 x116 +1 x119 +1 x132 +1 x143
  +1 x160 +1 x164 +1 x181 +1 x186 >= +1
 c148: +1 x3 +1 x19 +1 x40 +1 x54 +1 x85 +1 x86 +1 x99 +1 x103 +1 x119 +1 x122 +1 x138 +1 x172 +1 x173
  +1 x176 +1 x182 +1 x189 +1 x196 >= +1
 c149: +1 x4 +1 x21 +1 x28 +1 x35 +1 x46 +1 x50 +1 x54 +1 x69 +1 x94 +1 x101 +1 x108 +1 x129 +1 x142 +1 x143
  +1 x146 +1 x154 +1 x157 +1 x160 +1 x169 +1 x176 +1 x186 +1 x195 +1 x196 >= +1
 c150: +1 x7 +1 x12 +1 x30 +1 x32 +1 x36 +1 x37 +1 x44 +1 x55 +1 x74 +1 x78 +1 x90 +1 x94 +1 x105 +1 x112
  +1 x118 +1 x134 +1 x136 +1 x138 +1 x152 +1 x167 +1 x173 +1 x183 >= +1
 c151: +1 x9 +1 x43 +1 x50 +1 x59 +1 x72 +1 x122 +1 x126 +1 x144 +1 x150 +1 x156 +1 x170 +1 x171 >= +1
 c152: +1 x8 +1 x11 +1 x14 +1 x15 +1 x17 +1 x28 +1 x36 +1 x41 +1 x56 +1 x68 +1 x73 +1 x78 +1 x114 +1 x117
  +1 x119 +1 x133 +1 x139 +1 x144 +1 x151 +1 x185 +1 x188 +1 x191 +1 x195 +1 x199 >= +1
 c153: +1 x6 +1 x21 +1 x39 +1 x50 +1 x73 +1 x85 +1 x90 +1 x102 +1 x106 +1 x107 +1 x112 +1 x131 +1 x140
  +1 x141 +1 x156 +1 x157 +1 x169 +1 x181 +1 x184 +1 x198 >= +1
 c154: +1 x3 +1 x34 +1 x44 +1 x50 +1 x91 +1 x97 +1 x114 +1 x133 +1 x136 +1 x144 +1 x145 +1 x146 +1 x151
  +1 x152 +1 x158 +1 x164 +1 x171 +1 x174 +1 x176 +1 x186 +1 x194 +1 x196 >= +1
 c155: +1 x10 +1 x12 +1 x35 +1 x53 +1 x72 +1 x104 +1 x117 +1 x126 +1 x143 +1 x156 +1 x157 +1 x169 +1 x175
  +1 x180 +1 x199 >= +1
 c156: +1 x8 +1 x15 +1 x16 +1 x27 +1 x36 +1 x42 +1 x43 +1 x53 +1 x58 +1 x62 +1 x65 +1 x66 +1 x74 +1 x75
  +1 x77 +1 x95 +1 x97 +1 x99 +1 x112 +1 x135 +1 x152 +1 x154 +1 x156 +1 x162 +1 x166 +1 x169 +1 x173
  >= +1
 c157: +1 x9 +1 x17 +1 x22 +1 x43 +1 x44 +1 x45 +1 x63 +1 x88 +1 x91 +1 x95 +1 x114 +1 x127 +1 x129 +1 x143
  +1 x158 +1 x160 +1 x170 +1 x177 +1 x180 +1 x181 +1 x193 +1 x198 >= +1
 c158: +1 x4 +1 x14 +1 x22 +1 x23 +1 x27 +1 x28 +1 x41 +1 x78 +1 x81 +1 x91 +1 x98 +1 x100 +1 x112 +1 x113
  +1 x122 +1 x131 +1 x138 +1 x142 +1 x151 +1 x163 +1 x189 >= +1
 c159: +1 x9 +1 x12 +1 x21 +1 x27 +1 x43 +1 x47 +1 x53 +1 x59 +1 x64 +1 x66 +1 x71 +1 x100 +1 x104 +1 x137
  +1 x167 +1 x173 +1 x182 +1 x189 >= +1
 c160: +1 x5 +1 x25 +1 x30 +1 x39 +1 x54 +1 x86 +1 x87 +1 x90 +1 x97 +1 x105 +1 x111 +1 x113 +1 x126 +1 x127
  +1 x131 +1 x136 +1 x142 +1 x151 +1 x164 +1 x165 +1 x188 +1 x190 >= +1
 c161: +1 x0 +1 x21 +1 x22 +1 x25 +1 x30 +1 x43 +1 x50 +1 x55 +1 x58 +1 x68 +1 x72 +1 x112 +1 x116 +1 x120
  +1 x131 +1 x134 +1 x136 +1 x138 +1 x156 +1 x162 +1 x187 >= +1
 c162: +1 x7 +1 x18 +1 x28 +1 x38 +1 x56 +1 x66 +1 x67 +1 x70 +1 x85 +1 x92 +1 x97 +1 x102 +1 x105 +1 x108
  +1 x122 +1 x129 +1 x133 +1 x136 +1 x149 +1 x157 +1 x159 +1 x166 +1 x181 >= +1
 c163: +1 x10 +1 x13 +1 x18 +1 x43 +1 x64 +1 x65 +1 x80 +1 x89 +1 x95 +1 x97 +1 x110 +1 x115 +1 x118 +1 x122
  +1 x130 +1 x142 +1 x144 +1 x154 +1 x162 +1 x173 +1 x179 +1 x182 >= +1
 c164: +1 x9 +1 x30 +1 x49 +1 x57 +1 x82 +1 x85 +1 x86 +1 x90 +1 x112 +1 x127 +1 x132 +1 x134 +1 x137
  +1 x144 +1 x161 +1 x163 +1 x174 +1 x183 +1 x194 +1 x198 >= +1
 c165: +1 x0 +1 x11 +1 x14 +1 x15 +1 x20 +1 x32 +1 x52 +1 x53 +1 x54 +1 x60 +1 x64 +1 x69 +1 x84 +1 x91
  +1 x106 +1 x120 +1 x122 +1 x123 +1 x139 +1 x149 +1 x155 +1 x161 +1 x185 +1 x191 >= +1
 c166: +1 x2 +1 x14 +1 x18 +1 x22 +1 x25 +1 x49 +1 x51 +1 x62 +1 x102 +1 x117 +1 x119 +1 x125 +1 x127
  +1 x133 +1 x147 +1 x173 +1 x182 +1 x186 +1 x187 +1 x189 +1 x199 >= +1
 c167: +1 x0 +1 x14 +1 x18 +1 x19 +1 x20 +1 x26 +1 x30 +1 x50 +1 x54 +1 x70 +1 x95 +1 x109 +1 x110 +1 x117
  +1 x143 +1 x144 +1 x162 +1 x173 >= +1
 c168: +1 x5 +1 x20 +1 x32 +1 x61 +1 x62 +1 x64 +1 x69 +1 x70 +1 x79 +1 x84 +1 x95 +1 x124 +1 x125 +1 x137
  +1 x140 +1 x147 +1 x148 +1 x150 +1 x151 +1 x180 +1 x193 >= +1
 c169: +1 x6 +1 x27 +1 x32 +1 x33 +1 x49 +1 x52 +1 x58 +1 x59 +1 x74 +1 x84 +1 x92 +1 x100 +1 x101 +1 x106
  +1 x116 +1 x119 +1 x125 +1 x132 +1 x135 +1 x136 +1 x139 +1 x159 +1 x184 +1 x191 +1 x193 +1 x197 +1 x198
  >= +1
 c170: +1 x4 +1 x16 +1 x21 +1 x34 +1 x35 +1 x46 +1 x47 +1 x49 +1 x51 +1 x56 +1 x61 +1 x75 +1 x88 +1 x92
  +1 x94 +1 x99 +1 x113 +1 x119 +1 x138 +1 x159 +1 x167 +1 x181 +1 x197 >= +1
 c171: +1 x10 +1 x21 +1 x23 +1 x51 +1 x59 +1 x76 +1 x100 +1 x102 +1 x104 +1 x110 +1 x117 +1 x118 +1 x123
  +1 x127 +1 x140 +1 x154 +1 x189 >= +1
 c172: +1 x3 +1 x30 +1 x82 +1 x87 +1 x99 +1 x107 +1 x135 +1 x140 +1 x145 +1 x153 +1 x154 +1 x159 +1 x164
  +1 x172 >= +1
 c173: +1 x0 +1 x13 +1 x45 +1 x51 +1 x56 +1 x63 +1 x66 +1 x79 +1 x94 +1 x125 +1 x128 +1 x139 +1 x143 +1 x144
  +1 x152 +1 x154 +1 x195 >= +1
 c174: +1 x1 +1 x36 +1 x39 +1 x62 +1 x66 +1 x73 +1 x80 +1 x94 +1 x97 +1 x101 +1 x108 +1 x122 +1 x126 +1 x137
  +1 x140 +1 x142 +1 x147 +1 x166 +1 x171 +1 x189 >= +1
 c175: +1 x8 +1 x30 +1 x31 +1 x45 +1 x49 +1 x88 +1 x100 +1 x104 +1 x117 +1 x118 +1 x125 +1 x132 +1 x137
  +1 x152 +1 x156 +1 x160 +1 x162 +1 x169 +1 x197 >= +1
 c176: +1 x7 +1 x13 +1 x45 +1 x48 +1 x50 +1 x59 +1 x60 +1 x65 +1 x75 +1 x78 +1 x82 +1 x87 +1 x89 +1 x90
  +1 x91 +1 x93 +1 x111 +1 x115 +1 x121 +1 x124 +1 x128 +1 x132 +1 x137 +1 x159 +1 x163 +1 x164 +1 x168
  +1 x173 +1 x178 +1 x188 +1 x194 +1 x195 +1 x198 >= +1
 c177: +1 x5 +1 x19 +1 x61 +1 x88 +1 x98 +1 x104 +1 x107 +1 x108 +1 x112 +1 x120 +1 x149 +1 x150 +1 x157
  +1 x179 +1 x190 >= +1
 c178: +1 x3 +1 x11 +1 x20 +1 x22 +1 x23 +1 x54 +1 x55 +1 x81 +1 x92 +1 x98 +1 x102 +1 x110 +1 x121 +1 x129
  +1 x134 +1 x136 +1 x154 +1 x158 +1 x164 +1 x195 +1 x197 +1 x198 >= +1
 c179: +1 x1 +1 x26 +1 x36 +1 x50 +1 x52 +1 x67 +1 x72 +1 x91 +1 x103 +1 x105 +1 x106 +1 x126 +1 x131
  +1 x132 +1 x135 +1 x145 +1 x158 +1 x164 +1 x165 +1 x193 >= +1
 c180: +1 x5 +1 x17 +1 x23 +1 x26 +1 x27 +1 x34 +1 x48 +1 x51 +1 x63 +1 x72 +1 x96 +1 x120 +1 x149 +1 x161
  +1 x183 +1 x186 +1 x188 +1 x193 +1 x196 >= +1
 c181: +1 x4 +1 x21 +1 x41 +1 x48 +1 x77 +1 x89 +1 x92 +1 x107 +1 x145 +1 x169 +1 x173 +1 x191 >= +1
 c182: +1 x8 +1 x22 +1 x40 +1 x44 +1 x49 +1 x56 +1 x58 +1 x65 +1 x67 +1 x81 +1 x89 +1 x97 +1 x104 +1 x135
  +1 x143 +1 x169 >= +1
 c183: +1 x0 +1 x12 +1 x40 +1 x41 +1 x49 +1 x53 +1 x114 +1 x119 +1 x121 +1 x125 +1 x157 +1 x160 +1 x169
  +1 x189 +1 x196 >= +1
 c184: +1 x7 +1 x22 +1 x25 +1 x53 +1 x55 +1 x60 +1 x67 +1 x81 +1 x82 +1 x98 +1 x101 +1 x104 +1 x106 +1 x107
  +1 x120 +1 x150 +1 x161 +1 x165 +1 x190 >= +1
 c185: +1 x5 +1 x29 +1 x43 +1 x46 +1 x48 +1 x59 +1 x65 +1 x73 +1 x97 +1 x105 +1 x132 +1 x145 +1 x151 +1 x162
  +1 x163 +1 x177 +1 x184 +1 x186 +1 x196 >= +1
 c186: +1 x5 +1 x13 +1 x17 +1 x29 +1 x36 +1 x40 +1 x46 +1 x69 +1 x85 +1 x87 +1 x97 +1 x101 +1 x119 +1 x122
  +1 x150 +1 x161 +1 x163 +1 x172 +1 x181 +1 x182 >= +1
 c187: +1 x6 +1 x11 +1 x21 +1 x27 +1 x36 +1 x41 +1 x45 +1 x56 +1 x60 +1 x75 +1 x79 +1 x81 +1 x87 +1 x95
  +1 x96 +1 x107 +1 x130 +1 x144 +1 x152 +1 x163 +1 x174 +1 x187 +1 x188 +1 x193 +1 x198 >= +1
 c188: +1 x0 +1 x27 +1 x29 +1 x53 +1 x77 +1 x86 +1 x87 +1 x100 +1 x123 +1 x125 +1 x142 +1 x144 +1 x148
  +1 x157 +1 x172 +1 x175 +1 x186 +1 x193 +1 x194 +1 x198 >= +1
 c189: +1 x8 +1 x11 +1 x13 +1 x16 +1 x22 +1 x32 +1 x33 +1 x45 +1 x49 +1 x50 +1 x55 +1 x65 +1 x68 +1 x80
  +1 x116 +1 x119 +1 x141 +1 x142 +1 x147 +1 x158 +1 x170 +1 x178 +1 x195 +1 x196 >= +1
 c190: +1 x7 +1 x33 +1 x34 +1 x41 +1 x47 +1 x51 +1 x56 +1 x93 +1 x98 +1 x100 +1 x109 +1 x110 +1 x114 +1 x139
  +1 x141 +1 x143 +1 x153 +1 x160 +1 x177 +1 x183 +1 x189 +1 x194 >= +1
 c191: +1 x4 +1 x21 +1 x42 +1 x44 +1 x49 +1 x56 +1 x57 +1 x59 +1 x85 +1 x96 +1 x127 +1 x148 +1 x152 +1 x156
  +1 x169 +1 x179 +1 x180 +1 x181 +1 x195 >= +1
 c192: +1 x2 +1 x13 +1 x15 +1 x35 +1 x75 +1 x83 +1 x87 +1 x88 +1 x92 +1 x97 +1 x106 +1 x109 +1 x125 +1 x132
  +1 x136 +1 x139 +1 x152 +1 x160 +1 x161 +1 x178 +1 x188 +1 x192 >= +1
 c193: +1 x2 +1 x24 +1 x61 +1 x69 +1 x87 +1 x102 +1 x110 +1 x150 +1 x151 +1 x152 +1 x158 +1 x165 +1 x166
  +1 x170 +1 x175 +1 x176 +1 x197 +1 x199 >= +1
 c194: +1 x10 +1 x12 +1 x15 +1 x18 +1 x31 +1 x33 +1 x38 +1 x40 +1 x50 +1 x58 +1 x60 +1 x85 +1 x87 +1 x104
  +1 x129 +1 x133 +1 x139 +1 x150 +1 x165 +1 x168 +1 x172 +1 x184 +1 x189 >= +1
 c195: +1 x8 +1 x40 +1 x41 +1 x69 +1 x77 +1 x96 +1 x101 +1 x128 +1 x138 +1 x140 +1 x163 +1 x179 >= +1
 c196: +1 x4 +1 x13 +1 x24 +1 x30 +1 x31 +1 x57 +1 x65 +1 x91 +1 x113 +1 x131 +1 x141 +1 x142 +1 x161
  +1 x162 +1 x174 +1 x183 +1 x186 +1 x199 >= +1
 c197: +1 x9 +1 x12 +1 x36 +1 x38 +1 x44 +1 x54 +1 x58 +1 x63 +1 x130 +1 x144 +1 x157 +1 x166 +1 x195
  +1 x199 >= +1
 c198: +1 x5 +1 x13 +1 x18 +1 x24 +1 x38 +1 x43 +1 x48 +1 x62 +1 x83 +1 x96 +1 x109 +1 x112 +1 x114 +1 x117
  +1 x128 +1 x145 +1 x162 +1 x170 +1 x176 +1 x184 +1 x199 >= +1
 c199: +1 x2 +1 x19 +1 x23 +1 x24 +1 x46 +1 x86 +1 x89 +1 x91 +1 x97 +1 x106 +1 x114 +1 x123 +1 x136 +1 x137
  +1 x139 +1 x144 +1 x149 +1 x170 +1 x172 +1 x195 >= +1
Bounds
 0 <= x0 <= 1
 0 <= x1 <= 1
 0 <= x2 <= 1
 0 <= x3 <= 1
 0 <= x4 <= 1
 0 <= x5 <= 1
 0 <= x6 <= 1
 0 <= x7 <= 1
 0 <= x8 <= 1
 0 <= x9 <= 1
 0 <= x10 <= 1
 0 <= x11 <= 1
 0 <= x12 <= 1
 0 <= x13 <= 1
 0 <= x14 <= 1
 0 <= x15 <= 1
 0 <= x16 <= 1
 0 <= x17 <= 1
 0 <= x18 <= 1
 0 <= x19 <= 1
 0 <= x20 <= 1
 0 <= x21 <= 1
 0 <= x22 <= 1
 0 <= x23 <= 1
 0 <= x24 <= 1
 0 <= x25 <= 1
 0 <= x26 <= 1
 0 <= x27 <= 1
 0 <= x28 <= 1
 0 <= x29 <= 1
 0 <= x30 <= 1
 0 <= x31 <= 1
 0 <= x32 <= 1
 0 <= x33 <= 1
 0 <= x34 <= 1
 0 <= x35 <= 1
 0 <= x36 <= 1
 0 <= x37 <= 1
 0 <= x38 <= 1
 0 <= x39 <= 1
 0 <= x40 <= 1
 0 <= x41 <= 1
 0 <= x42 <= 1
 0 <= x43 <= 1
 0 <= x44 <= 1
 0 <= x45 <= 1
 0 <= x46 <= 1
 0 <= x47 <= 1
 0 <= x48 <= 1
 0 <= x49 <= 1
 0 <= x50 <= 1
 0 <= x51 <= 1
 0 <= x52 <= 1
 0 <= x53 <= 1
 0 <= x54 <= 1
 0 <= x55 <= 1
 0 <= x56 <= 1
 0 <= x57 <= 1
 0 <= x58 <= 1
 0 <= x59 <= 1
 0 <= x60 <= 1
 0 <= x61 <= 1
 0 <= x62 <= 1
 0 <= x63 <= 1
 0 <= x64 <= 1
 0 <= x65 <= 1
 0 <= x66 <= 1
 0 <= x67 <= 1
 0 <= x68 <= 1
 0 <= x69 <= 1
 0 <= x70 <= 1
 0 <= x71 <= 1
 0 <= x72 <= 1
 0 <= x73 <= 1
 0 <= x74 <= 1
 0 <= x75 <= 1
 0 <= x76 <= 1
 0 <= x77 <= 1
 0 <= x78 <= 1
 0 <= x79 <= 1
 0 <= x80 <= 1
 0 <= x81 <= 1
 0 <= x82 <= 1
 0 <= x83 <= 1
 0 <= x84 <= 1
 0 <= x85 <= 1
 0 <= x86 <= 1
 0 <= x87 <= 1
 0 <= x88 <= 1
 0 <= x89 <= 1
 0 <= x90 <= 1
 0 <= x91 <= 1
 0 <= x92 <= 1
 0 <= x93 <= 1
 0 <= x94 <= 1
 0 <= x95 <= 1
 0 <= x96 <= 1
 0 <= x97 <= 1
 0 <= x98 <= 1
 0 <= x99 <= 1
 0 <= x100 <= 1
 0 <= x101 <= 1
 0 <= x102 <= 1
 0 <= x103 <= 1
 0 <= x104 <= 1
 0 <= x105 <= 1
 0 <= x106 <= 1
 0 <= x107 <= 1
 0 <= x108 <= 1
 0 <= x109 <= 1
 0 <= x110 <= 1
 0 <= x111 <= 1
 0 <= x112 <= 1
 0 <= x113 <= 1
 0 <= x114 <= 1
 0 <= x115 <= 1
 0 <= x116 <= 1
 0 <= x117 <= 1
 0 <= x118 <= 1
 0 <= x119 <= 1
 0 <= x120 <= 1
 0 <= x121 <= 1
 0 <= x122 <= 1
 0 <= x123 <= 1
 0 <= x124 <= 1
 0 <= x125 <= 1
 0 <= x126 <= 1
 0 <= x127 <= 1
 0 <= x128 <= 1
 0 <= x129 <= 1
 0 <= x130 <= 1
 0 <= x131 <= 1
 0 <= x132 <= 1
 0 <= x133 <= 1
 0 <= x134 <= 1
 0 <= x135 <= 1
 0 <= x136 <= 1
 0 <= x137 <= 1
 0 <= x138 <= 1
 0 <= x139 <= 1
 0 <= x140 <= 1
 0 <= x141 <= 1
 0 <= x142 <= 1
 0 <= x143 <= 1
 0 <= x144 <= 1
 0 <= x145 <= 1
 0 <= x146 <= 1
 0 <= x147 <= 1
 0 <= x148 <= 1
 0 <= x149 <= 1
 0 <= x150 <= 1
 0 <= x151 <= 1
 0 <= x152 <= 1
 0 <= x153 <= 1
 0 <= x154 <= 1
 0 <= x155 <= 1
 0 <= x156 <= 1
 0 <= x157 <= 1
 0 <= x158 <= 1
 0 <= x159 <= 1
 0 <= x160 <= 1
 0 <= x161 <= 1
 0 <= x162 <= 1
 0 <= x163 <= 1
 0 <= x164 <= 1
 0 <= x165 <= 1
 0 <= x166 <= 1
 0 <= x167 <= 1
 0 <= x168 <= 1
 0 <= x169 <= 1
 0 <= x170 <= 1
 0 <= x171 <= 1
 0 <= x172 <= 1
 0 <= x173 <= 1
 0 <= x174 <= 1
 0 <= x175 <= 1
 0 <= x176 <= 1
 0 <= x177 <= 1
 0 <= x178 <= 1
 0 <= x179 <= 1
 0 <= x180 <= 1
 0 <= x181 <= 1
 0 <= x182 <= 1
 0 <= x183 <= 1
 0 <= x184 <= 1
 0 <= x185 <= 1
 0 <= x186 <= 1
 0 <= x187 <= 1
 0 <= x188 <= 1
 0 <= x189 <= 1
 0 <= x190 <= 1
 0 <= x191 <= 1
 0 <= x192 <= 1
 0 <= x193 <= 1
 0 <= x194 <= 1
 0 <= x195 <= 1
 0 <= x196 <= 1
 0 <= x197 <= 1
 0 <= x198 <= 1
 0 <= x199 <= 1
Binaries
 x0 x1 x2 x3 x4 x5 x6 x7 x8 x9 x10 x11 x12 x13 x14 x15 x16 x17 x18 x19 x20 x21 x22 x23 x24 x25 x26 x27
 x28 x29 x30 x31 x32 x33 x34 x35 x36 x37 x38 x39 x40 x41 x42 x43 x44 x45 x46 x47 x48 x49 x50 x51 x52 x53
 x54 x55 x56 x57 x58 x59 x60 x61 x62 x63 x64 x65 x66 x67 x68 x69 x70 x71 x72 x73 x74 x75 x76 x77 x78 x79
 x80 x81 x82 x83 x84 x85 x86 x87 x88 x89 x90 x91 x92 x93 x94 x95 x96 x97 x98 x99 x100 x101 x102 x103 x104
 x105 x106 x107 x108 x109 x110 x111 x112 x113 x114 x115 x116 x117 x118 x119 x120 x121 x122 x123 x124 x125
 x126 x127 x128 x129 x130 x131 x132 x133 x134 x135 x136 x137 x138 x139 x140 x141 x142 x143 x144 x145 x146
 x147 x148 x149 x150 x151 x152 x153 x154 x155 x156 x157 x158 x159 x160 x161 x162 x163 x164 x165 x166 x167
 x168 x169 x170 x171 x172 x173 x174 x175 x176 x177 x178 x179 x180 x181 x182 x183 x184 x185 x186 x187 x188
 x189 x190 x191 x192 x193 x194 x195 x196 x197 x198 x199
End
